&CONTROL
   calculation          =  'scf',
/

&SYSTEM
   ibrav  =  14,
   A = 3.67461
   B = 4.409532
   C = 5.879376
   cosBC    =  0.8,
   cosAC    =  0.7,
   cosAB    =  0.4,
   degauss      =  0.03,
   ecutrho      =  240.0,
   ecutwfc      =  30.0,
   nat          =  2,
   ntyp         =  2,
   occupations  =  'smearing',
   smearing     =  'methfessel-paxton',
/

&ELECTRONS
   electron_maxstep = 0
/

ATOMIC_SPECIES 
   Cu    1.0   Cu.pbe-kjpaw.UPF 
   O     1.0   O.pbe-kjpaw.UPF 

ATOMIC_POSITIONS crystal
   Cu       0.00   0.00   0.00
   O        0.25   0.25   0.25
   
K_POINTS automatic
   8   8   8   1   1   1 



